33D32945 STP File, STP Format Version 1.0

SECTION Comment
Name    "i080-042"
Creator "Cees Duin"
Remark  "Incidence graph"
END

SECTION Graph
Nodes 80
Edges 632
E 1 5 297
E 1 6 305
E 1 7 203
E 1 8 195
E 1 11 196
E 1 12 198
E 1 21 191
E 1 24 199
E 1 25 201
E 1 27 202
E 1 28 193
E 1 29 196
E 1 30 203
E 1 39 190
E 1 41 208
E 1 42 195
E 1 46 200
E 1 49 199
E 1 54 192
E 1 65 195
E 1 67 190
E 1 70 207
E 1 74 198
E 1 76 199
E 1 79 202
E 2 10 196
E 2 19 200
E 2 20 197
E 2 41 209
E 2 42 201
E 2 47 200
E 2 51 202
E 2 53 203
E 2 55 191
E 2 60 207
E 2 65 195
E 2 76 203
E 2 78 201
E 3 4 302
E 3 7 199
E 3 9 201
E 3 14 204
E 3 25 191
E 3 30 198
E 3 32 204
E 3 34 199
E 3 40 211
E 3 49 200
E 3 53 199
E 3 55 196
E 3 56 193
E 3 57 200
E 3 60 209
E 3 61 198
E 3 62 199
E 3 65 195
E 3 69 201
E 3 72 200
E 4 8 206
E 4 10 201
E 4 12 193
E 4 16 197
E 4 19 195
E 4 21 198
E 4 27 205
E 4 28 205
E 4 35 206
E 4 40 192
E 4 43 201
E 4 44 201
E 4 46 213
E 4 49 200
E 4 52 206
E 4 62 197
E 4 66 199
E 4 68 204
E 4 73 205
E 4 75 200
E 5 9 199
E 5 17 199
E 5 21 199
E 5 32 198
E 5 35 197
E 5 37 192
E 5 39 202
E 5 40 207
E 5 42 191
E 5 43 201
E 5 46 206
E 5 58 203
E 5 67 196
E 5 75 199
E 5 78 197
E 5 80 199
E 6 9 191
E 6 10 209
E 6 16 186
E 6 27 186
E 6 32 202
E 6 36 202
E 6 39 202
E 6 41 204
E 6 42 207
E 6 44 199
E 6 55 206
E 6 62 207
E 6 68 209
E 6 70 191
E 6 71 204
E 6 73 196
E 6 80 194
E 7 15 94
E 7 19 100
E 7 22 95
E 7 28 99
E 7 29 96
E 7 31 96
E 7 32 100
E 7 37 104
E 7 39 101
E 7 40 104
E 7 43 100
E 7 45 97
E 7 46 102
E 7 48 102
E 7 50 100
E 7 52 99
E 7 53 103
E 7 56 102
E 7 61 90
E 7 63 98
E 7 65 102
E 7 68 94
E 7 73 100
E 7 74 98
E 7 75 92
E 8 9 106
E 8 13 108
E 8 14 100
E 8 24 93
E 8 30 91
E 8 35 102
E 8 39 105
E 8 45 103
E 8 47 89
E 8 52 95
E 8 53 93
E 8 62 100
E 9 11 100
E 9 27 104
E 9 30 94
E 9 31 105
E 9 32 99
E 9 41 98
E 9 45 106
E 9 46 98
E 9 49 98
E 9 58 98
E 9 70 103
E 9 80 100
E 10 15 100
E 10 24 98
E 10 25 99
E 10 26 109
E 10 30 93
E 10 32 89
E 10 55 92
E 10 58 93
E 10 60 99
E 10 61 98
E 10 67 92
E 10 76 101
E 10 78 108
E 11 17 104
E 11 20 98
E 11 28 95
E 11 29 98
E 11 33 92
E 11 43 103
E 11 45 103
E 11 53 104
E 11 56 102
E 11 67 106
E 12 17 100
E 12 21 101
E 12 23 95
E 12 26 98
E 12 45 97
E 12 47 101
E 12 54 105
E 12 71 101
E 13 22 91
E 13 26 98
E 13 29 104
E 13 31 105
E 13 32 112
E 13 34 96
E 13 35 106
E 13 38 107
E 13 39 101
E 13 48 100
E 13 50 105
E 13 52 100
E 13 57 99
E 13 59 99
E 13 62 116
E 13 67 87
E 13 72 103
E 13 75 99
E 13 78 95
E 14 21 85
E 14 32 104
E 14 35 93
E 14 36 100
E 14 37 102
E 14 38 102
E 14 40 87
E 14 42 102
E 14 52 104
E 14 65 103
E 14 69 107
E 14 72 103
E 14 73 105
E 14 80 96
E 15 22 104
E 15 23 100
E 15 27 103
E 15 31 96
E 15 32 100
E 15 34 102
E 15 36 97
E 15 37 100
E 15 42 98
E 15 47 102
E 15 49 102
E 15 73 96
E 15 75 92
E 15 76 103
E 15 79 103
E 16 22 100
E 16 23 99
E 16 28 100
E 16 29 109
E 16 31 95
E 16 37 101
E 16 42 94
E 16 45 97
E 16 52 102
E 16 54 89
E 16 57 96
E 16 59 101
E 16 64 101
E 16 68 98
E 16 69 92
E 16 76 101
E 16 77 102
E 16 78 89
E 17 20 99
E 17 22 102
E 17 28 94
E 17 30 109
E 17 34 103
E 17 35 100
E 17 38 90
E 17 41 102
E 17 46 100
E 17 48 95
E 17 54 100
E 17 56 102
E 17 58 102
E 17 61 96
E 17 66 110
E 18 20 100
E 18 21 109
E 18 26 102
E 18 32 96
E 18 33 98
E 18 34 103
E 18 36 99
E 18 39 105
E 18 40 102
E 18 50 98
E 18 51 91
E 18 52 96
E 18 55 98
E 18 57 103
E 18 62 105
E 18 65 110
E 18 74 102
E 18 77 98
E 18 78 99
E 19 20 106
E 19 24 102
E 19 34 103
E 19 42 100
E 19 50 94
E 19 51 91
E 19 56 102
E 19 64 98
E 19 65 90
E 19 68 92
E 19 69 88
E 19 74 98
E 19 77 102
E 19 79 93
E 20 21 110
E 20 24 102
E 20 29 96
E 20 32 100
E 20 37 102
E 20 39 102
E 20 44 98
E 20 48 101
E 20 50 102
E 20 51 97
E 20 52 97
E 20 56 94
E 20 60 102
E 20 62 102
E 20 77 102
E 20 78 98
E 20 79 96
E 21 24 97
E 21 25 99
E 21 29 107
E 21 37 105
E 21 38 101
E 21 39 102
E 21 44 96
E 21 60 100
E 21 65 108
E 21 67 96
E 21 76 96
E 22 29 99
E 22 35 105
E 22 39 96
E 22 47 99
E 22 70 102
E 22 75 101
E 23 34 93
E 23 37 100
E 23 38 102
E 23 45 101
E 23 51 99
E 23 56 100
E 23 58 97
E 23 60 95
E 23 61 100
E 23 62 99
E 23 65 105
E 23 67 98
E 23 69 100
E 23 70 100
E 23 80 103
E 24 35 99
E 24 42 106
E 24 48 99
E 24 53 101
E 24 57 96
E 24 58 116
E 24 59 101
E 24 61 108
E 24 64 102
E 24 67 101
E 24 72 95
E 25 29 95
E 25 39 96
E 25 40 100
E 25 44 99
E 25 48 100
E 25 52 104
E 25 57 93
E 25 69 94
E 25 77 107
E 26 27 94
E 26 31 104
E 26 33 107
E 26 53 100
E 26 56 99
E 26 59 99
E 26 64 91
E 26 68 109
E 26 69 97
E 26 75 106
E 26 78 97
E 26 79 96
E 26 80 103
E 27 28 90
E 27 41 95
E 27 42 101
E 27 69 104
E 27 79 104
E 28 29 97
E 28 30 99
E 28 37 104
E 28 42 100
E 28 55 97
E 28 62 101
E 28 63 112
E 28 66 106
E 28 69 107
E 28 71 103
E 28 77 91
E 28 79 102
E 29 38 96
E 29 44 100
E 29 47 106
E 29 55 97
E 29 70 101
E 29 74 102
E 30 37 102
E 30 38 91
E 30 39 105
E 30 43 99
E 30 60 95
E 30 66 103
E 30 71 93
E 30 74 90
E 30 76 108
E 31 37 100
E 31 43 103
E 31 48 94
E 31 51 94
E 31 53 95
E 31 65 99
E 31 79 105
E 31 80 100
E 32 41 89
E 32 54 94
E 32 56 94
E 32 58 103
E 32 76 97
E 33 38 102
E 33 40 98
E 33 43 103
E 33 48 96
E 33 65 102
E 33 70 105
E 33 71 102
E 33 72 102
E 33 73 97
E 33 75 109
E 33 77 95
E 34 39 101
E 34 49 95
E 34 57 101
E 34 66 100
E 34 79 93
E 35 41 91
E 35 48 100
E 35 50 99
E 35 52 99
E 35 54 101
E 35 56 97
E 35 67 99
E 35 70 88
E 35 78 97
E 35 79 93
E 36 39 102
E 36 45 99
E 36 50 101
E 36 57 104
E 36 59 106
E 36 64 104
E 36 69 104
E 36 72 100
E 37 38 95
E 37 43 110
E 37 44 99
E 37 57 109
E 37 58 100
E 37 63 97
E 37 66 97
E 37 68 112
E 37 69 93
E 37 75 106
E 38 45 98
E 38 57 105
E 38 65 98
E 39 42 101
E 39 43 101
E 39 44 96
E 39 54 99
E 39 57 100
E 39 58 90
E 39 63 107
E 39 74 103
E 40 45 96
E 40 47 96
E 40 53 96
E 40 56 100
E 40 58 95
E 40 59 98
E 40 63 105
E 40 68 97
E 40 79 100
E 41 55 92
E 41 56 100
E 41 63 94
E 41 72 99
E 41 76 107
E 41 78 96
E 42 56 99
E 42 58 99
E 42 62 97
E 42 68 88
E 42 70 96
E 42 72 101
E 42 75 97
E 42 80 113
E 43 45 93
E 43 48 103
E 43 60 95
E 43 65 100
E 43 67 103
E 43 71 102
E 43 76 91
E 43 77 100
E 44 55 102
E 44 63 101
E 44 73 109
E 44 75 99
E 44 80 102
E 45 53 92
E 45 58 101
E 45 64 107
E 45 66 103
E 45 75 99
E 45 78 98
E 46 51 105
E 46 54 104
E 46 65 103
E 46 74 94
E 46 77 96
E 47 49 99
E 47 55 102
E 47 67 91
E 47 68 105
E 47 75 95
E 47 78 99
E 48 51 95
E 48 52 110
E 48 58 101
E 48 63 103
E 48 65 100
E 49 53 100
E 49 58 99
E 49 71 96
E 49 80 100
E 50 51 94
E 50 64 95
E 50 65 102
E 50 75 104
E 50 80 100
E 51 52 95
E 51 56 101
E 51 59 95
E 51 62 106
E 51 73 94
E 51 75 98
E 52 57 96
E 52 59 91
E 52 63 94
E 52 64 95
E 52 74 91
E 52 78 104
E 52 79 96
E 53 55 107
E 53 57 104
E 53 66 109
E 53 68 95
E 53 80 106
E 54 58 101
E 54 62 106
E 54 63 101
E 54 64 98
E 54 69 98
E 54 70 98
E 54 79 109
E 55 57 96
E 55 59 88
E 55 66 100
E 55 70 96
E 55 71 89
E 55 73 95
E 55 78 92
E 56 58 102
E 56 60 103
E 56 62 103
E 56 65 103
E 56 67 108
E 56 68 99
E 56 77 94
E 57 60 100
E 57 71 99
E 57 74 100
E 58 64 100
E 59 63 107
E 59 65 108
E 59 79 108
E 60 61 101
E 60 65 108
E 60 66 98
E 60 74 107
E 60 79 108
E 61 78 97
E 61 80 104
E 62 71 100
E 63 67 96
E 63 68 106
E 65 70 101
E 65 78 99
E 66 72 98
E 66 73 104
E 67 75 91
E 67 76 99
E 67 77 90
E 68 78 89
E 69 75 101
E 69 78 104
E 70 72 101
E 70 79 99
E 70 80 98
E 72 76 88
E 72 80 98
E 73 76 107
E 73 78 106
E 73 79 99
E 75 77 93
E 75 79 102
E 76 77 93
E 76 80 100
END

SECTION Terminals
Terminals 6
T 1
T 2
T 3
T 4
T 5
T 6
END

EOF
